
Gurobi 6.0.5 (linux64) logging started Fri Oct 20 12:45:38 2017


Gurobi 6.0.5 (linux64) logging started Fri Oct 20 12:45:38 2017


Gurobi 6.0.5 (linux64) logging started Fri Oct 20 12:45:39 2017


Gurobi 6.0.5 (linux64) logging started Fri Oct 20 12:45:39 2017


Gurobi 6.0.5 (linux64) logging started Fri Oct 20 12:45:40 2017


Gurobi 6.0.5 (linux64) logging started Fri Oct 20 12:45:40 2017


Gurobi 6.0.5 (linux64) logging started Fri Oct 20 12:45:41 2017


Gurobi 6.0.5 (linux64) logging started Fri Oct 20 12:45:42 2017


Gurobi 6.0.5 (linux64) logging started Fri Oct 20 12:45:43 2017


Gurobi 6.0.5 (linux64) logging started Fri Oct 20 12:51:18 2017


Gurobi 6.0.5 (linux64) logging started Fri Oct 20 12:51:20 2017


Gurobi 6.0.5 (linux64) logging started Fri Oct 20 12:51:21 2017


Gurobi 6.0.5 (linux64) logging started Fri Oct 20 12:51:23 2017


Gurobi 6.0.5 (linux64) logging started Fri Oct 20 12:51:24 2017


Gurobi 6.0.5 (linux64) logging started Fri Oct 20 12:51:26 2017


Gurobi 6.0.5 (linux64) logging started Fri Oct 20 12:51:28 2017


Gurobi 6.0.5 (linux64) logging started Fri Oct 20 12:51:30 2017


Gurobi 6.0.5 (linux64) logging started Fri Oct 20 12:51:32 2017


Gurobi 6.0.5 (linux64) logging started Fri Oct 20 14:18:08 2017


Gurobi 6.0.5 (linux64) logging started Fri Oct 20 14:18:08 2017


Gurobi 6.0.5 (linux64) logging started Fri Oct 20 14:18:09 2017


Gurobi 6.0.5 (linux64) logging started Fri Oct 20 14:18:09 2017


Gurobi 6.0.5 (linux64) logging started Fri Oct 20 14:18:10 2017


Gurobi 6.0.5 (linux64) logging started Fri Oct 20 14:18:10 2017


Gurobi 6.0.5 (linux64) logging started Fri Oct 20 14:18:11 2017


Gurobi 6.0.5 (linux64) logging started Fri Oct 20 14:18:12 2017


Gurobi 6.0.5 (linux64) logging started Fri Oct 20 14:18:13 2017


Gurobi 6.0.5 (linux64) logging started Fri Oct 20 14:18:51 2017


Gurobi 6.0.5 (linux64) logging started Fri Oct 20 14:18:51 2017


Gurobi 6.0.5 (linux64) logging started Fri Oct 20 14:18:52 2017


Gurobi 6.0.5 (linux64) logging started Fri Oct 20 14:18:52 2017


Gurobi 6.0.5 (linux64) logging started Fri Oct 20 14:18:53 2017


Gurobi 6.0.5 (linux64) logging started Fri Oct 20 14:18:53 2017


Gurobi 6.0.5 (linux64) logging started Fri Oct 20 14:18:54 2017


Gurobi 6.0.5 (linux64) logging started Fri Oct 20 14:18:55 2017


Gurobi 6.0.5 (linux64) logging started Fri Oct 20 14:18:56 2017

